\* Source Pyomo model name=lp_relaxed *\

min 
x88:
+672 ONE_VAR_CONSTANT

s.t.

c_e_x89_:
+1 x10
+1 x11
+1 x12
+1 x13
+1 x14
+1 x15
+1 x16
+1 x2
+1 x38
+1 x39
+1 x40
+1 x41
+1 x42
+1 x43
+1 x44
+1 x45
+1 x46
+1 x47
+1 x48
+1 x49
+1 x50
+1 x51
+1 x52
= 1

c_e_x90_:
+1 x10
+1 x17
+1 x18
+1 x19
+1 x20
+1 x21
+1 x22
+1 x3
+1 x38
+1 x39
+1 x40
+1 x41
+1 x42
+1 x53
+1 x54
+1 x55
+1 x56
+1 x57
+1 x58
+1 x59
+1 x60
+1 x61
+1 x62
+1 x63
+1 x64
+1 x65
+1 x66
+1 x67
= 1

c_e_x91_:
+1 x11
+1 x17
+1 x23
+1 x24
+1 x25
+1 x26
+1 x27
+1 x38
+1 x4
+1 x43
+1 x44
+1 x45
+1 x46
+1 x53
+1 x54
+1 x55
+1 x56
+1 x57
+1 x68
+1 x69
+1 x70
+1 x71
+1 x72
+1 x73
+1 x74
+1 x75
+1 x76
+1 x77
= 1

c_e_x92_:
+1 x12
+1 x18
+1 x23
+1 x28
+1 x29
+1 x30
+1 x31
+1 x39
+1 x43
+1 x47
+1 x48
+1 x49
+1 x5
+1 x53
+1 x58
+1 x59
+1 x60
+1 x61
+1 x68
+1 x69
+1 x70
+1 x71
+1 x78
+1 x79
+1 x80
+1 x81
+1 x82
+1 x83
= 1

c_e_x93_:
+1 x13
+1 x19
+1 x24
+1 x28
+1 x32
+1 x33
+1 x34
+1 x40
+1 x44
+1 x47
+1 x50
+1 x51
+1 x54
+1 x58
+1 x6
+1 x62
+1 x63
+1 x64
+1 x68
+1 x72
+1 x73
+1 x74
+1 x78
+1 x79
+1 x80
+1 x84
+1 x85
+1 x86
= 1

c_e_x94_:
+1 x14
+1 x20
+1 x25
+1 x29
+1 x32
+1 x35
+1 x36
+1 x55
+1 x59
+1 x62
+1 x65
+1 x66
+1 x69
+1 x7
+1 x72
+1 x75
+1 x76
+1 x78
+1 x81
+1 x82
+1 x84
+1 x85
+1 x87
= 1

c_e_x95_:
+1 x15
+1 x21
+1 x26
+1 x30
+1 x33
+1 x35
+1 x37
+1 x41
+1 x45
+1 x48
+1 x50
+1 x52
+1 x56
+1 x60
+1 x63
+1 x65
+1 x67
+1 x70
+1 x73
+1 x75
+1 x77
+1 x79
+1 x8
+1 x81
+1 x83
+1 x84
+1 x86
+1 x87
= 1

c_e_x96_:
+1 x16
+1 x22
+1 x27
+1 x31
+1 x34
+1 x36
+1 x37
+1 x42
+1 x46
+1 x49
+1 x51
+1 x52
+1 x57
+1 x61
+1 x64
+1 x66
+1 x67
+1 x71
+1 x74
+1 x76
+1 x77
+1 x80
+1 x82
+1 x83
+1 x85
+1 x86
+1 x87
+1 x9
= 1

c_u_x97_:
+1 x1
+1 x10
+1 x11
+1 x12
+1 x13
+1 x14
+1 x15
+1 x16
+1 x17
+1 x18
+1 x19
+1 x2
+1 x20
+1 x21
+1 x22
+1 x23
+1 x24
+1 x25
+1 x26
+1 x27
+1 x28
+1 x29
+1 x3
+1 x30
+1 x31
+1 x32
+1 x33
+1 x34
+1 x35
+1 x36
+1 x37
+1 x38
+1 x39
+1 x4
+1 x40
+1 x41
+1 x42
+1 x43
+1 x44
+1 x45
+1 x46
+1 x47
+1 x48
+1 x49
+1 x5
+1 x50
+1 x51
+1 x52
+1 x53
+1 x54
+1 x55
+1 x56
+1 x57
+1 x58
+1 x59
+1 x6
+1 x60
+1 x61
+1 x62
+1 x63
+1 x64
+1 x65
+1 x66
+1 x67
+1 x68
+1 x69
+1 x7
+1 x70
+1 x71
+1 x72
+1 x73
+1 x74
+1 x75
+1 x76
+1 x77
+1 x78
+1 x79
+1 x8
+1 x80
+1 x81
+1 x82
+1 x83
+1 x84
+1 x85
+1 x86
+1 x87
+1 x9
<= 3

c_u_x98_:
+6 x17
<= 16

c_u_x99_:
+6 x18
<= 20

c_u_x100_:
+6 x19
<= 6

c_u_x101_:
+6 x20
<= 19

c_u_x102_:
+6 x21
<= 18

c_u_x103_:
+6 x22
<= 19

c_u_x104_:
+4 x23
<= 20

c_u_x105_:
+4 x24
<= 6

c_u_x106_:
+4 x25
<= 19

c_u_x107_:
+4 x26
<= 18

c_u_x108_:
+4 x27
<= 19

c_u_x109_:
+4 x28
<= 6

c_u_x110_:
+4 x29
<= 19

c_u_x111_:
+4 x30
<= 18

c_u_x112_:
+4 x31
<= 19

c_u_x113_:
+5 x32
<= 19

c_u_x114_:
+5 x33
<= 18

c_u_x115_:
+5 x34
<= 19

c_u_x116_:
+5 x35
<= 18

c_u_x117_:
+5 x36
<= 19

c_u_x118_:
+5 x37
<= 19

c_u_x119_:
+4 x38
<= 16

c_u_x120_:
+4 x39
<= 20

c_u_x121_:
+4 x40
<= 6

c_u_x122_:
+4 x41
<= 18

c_u_x123_:
+4 x42
<= 19

c_u_x124_:
+6 x43
<= 20

c_u_x125_:
+6 x44
<= 6

c_u_x126_:
+6 x45
<= 18

c_u_x127_:
+6 x46
<= 19

c_u_x128_:
+4 x47
<= 6

c_u_x129_:
+4 x48
<= 18

c_u_x130_:
+4 x49
<= 19

c_u_x131_:
+6 x50
<= 18

c_u_x132_:
+6 x51
<= 19

c_u_x133_:
+6 x52
<= 19

c_u_x134_:
+6 x53
<= 16

c_u_x135_:
+8 x53
<= 20

c_u_x136_:
+6 x54
<= 16

c_u_x137_:
+8 x54
<= 6

c_u_x138_:
+6 x55
<= 16

c_u_x139_:
+8 x55
<= 19

c_u_x140_:
+6 x56
<= 16

c_u_x141_:
+8 x56
<= 18

c_u_x142_:
+6 x57
<= 16

c_u_x143_:
+8 x57
<= 19

c_u_x144_:
+6 x58
<= 20

c_u_x145_:
+4 x58
<= 6

c_u_x146_:
+6 x59
<= 20

c_u_x147_:
+4 x59
<= 19

c_u_x148_:
+6 x60
<= 20

c_u_x149_:
+4 x60
<= 18

c_u_x150_:
+6 x61
<= 20

c_u_x151_:
+4 x61
<= 19

c_u_x152_:
+6 x62
<= 6

c_u_x153_:
+6 x62
<= 19

c_u_x154_:
+6 x63
<= 6

c_u_x155_:
+6 x63
<= 18

c_u_x156_:
+6 x64
<= 6

c_u_x157_:
+6 x64
<= 19

c_u_x158_:
+6 x65
<= 19

c_u_x159_:
+5 x65
<= 18

c_u_x160_:
+6 x66
<= 19

c_u_x161_:
+5 x66
<= 19

c_u_x162_:
+6 x67
<= 18

c_u_x163_:
+6 x67
<= 19

c_u_x164_:
+4 x68
<= 20

c_u_x165_:
+4 x68
<= 6

c_u_x166_:
+4 x69
<= 20

c_u_x167_:
+4 x69
<= 19

c_u_x168_:
+4 x70
<= 20

c_u_x169_:
+4 x70
<= 18

c_u_x170_:
+4 x71
<= 20

c_u_x171_:
+4 x71
<= 19

c_u_x172_:
+4 x72
<= 6

c_u_x173_:
+6 x72
<= 19

c_u_x174_:
+4 x73
<= 6

c_u_x175_:
+6 x73
<= 18

c_u_x176_:
+4 x74
<= 6

c_u_x177_:
+6 x74
<= 19

c_u_x178_:
+4 x75
<= 19

c_u_x179_:
+5 x75
<= 18

c_u_x180_:
+4 x76
<= 19

c_u_x181_:
+5 x76
<= 19

c_u_x182_:
+4 x77
<= 18

c_u_x183_:
+6 x77
<= 19

c_u_x184_:
+4 x78
<= 6

c_u_x185_:
+6 x78
<= 19

c_u_x186_:
+4 x79
<= 6

c_u_x187_:
+6 x79
<= 18

c_u_x188_:
+4 x80
<= 6

c_u_x189_:
+6 x80
<= 19

c_u_x190_:
+4 x81
<= 19

c_u_x191_:
+5 x81
<= 18

c_u_x192_:
+4 x82
<= 19

c_u_x193_:
+5 x82
<= 19

c_u_x194_:
+4 x83
<= 18

c_u_x195_:
+6 x83
<= 19

c_u_x196_:
+5 x84
<= 19

c_u_x197_:
+5 x84
<= 18

c_u_x198_:
+5 x85
<= 19

c_u_x199_:
+5 x85
<= 19

c_u_x200_:
+5 x86
<= 18

c_u_x201_:
+6 x86
<= 19

c_u_x202_:
+5 x87
<= 18

c_u_x203_:
+6 x87
<= 19

c_e_ONE_VAR_CONSTANT: 
ONE_VAR_CONSTANT = 1.0

bounds
   0 <= x1 <= +inf
   0 <= x2 <= +inf
   0 <= x3 <= +inf
   0 <= x4 <= +inf
   0 <= x5 <= +inf
   0 <= x6 <= +inf
   0 <= x7 <= +inf
   0 <= x8 <= +inf
   0 <= x9 <= +inf
   0 <= x10 <= +inf
   0 <= x11 <= +inf
   0 <= x12 <= +inf
   0 <= x13 <= +inf
   0 <= x14 <= +inf
   0 <= x15 <= +inf
   0 <= x16 <= +inf
   0 <= x17 <= +inf
   0 <= x18 <= +inf
   0 <= x19 <= +inf
   0 <= x20 <= +inf
   0 <= x21 <= +inf
   0 <= x22 <= +inf
   0 <= x23 <= +inf
   0 <= x24 <= +inf
   0 <= x25 <= +inf
   0 <= x26 <= +inf
   0 <= x27 <= +inf
   0 <= x28 <= +inf
   0 <= x29 <= +inf
   0 <= x30 <= +inf
   0 <= x31 <= +inf
   0 <= x32 <= +inf
   0 <= x33 <= +inf
   0 <= x34 <= +inf
   0 <= x35 <= +inf
   0 <= x36 <= +inf
   0 <= x37 <= +inf
   0 <= x38 <= +inf
   0 <= x39 <= +inf
   0 <= x40 <= +inf
   0 <= x41 <= +inf
   0 <= x42 <= +inf
   0 <= x43 <= +inf
   0 <= x44 <= +inf
   0 <= x45 <= +inf
   0 <= x46 <= +inf
   0 <= x47 <= +inf
   0 <= x48 <= +inf
   0 <= x49 <= +inf
   0 <= x50 <= +inf
   0 <= x51 <= +inf
   0 <= x52 <= +inf
   0 <= x53 <= +inf
   0 <= x54 <= +inf
   0 <= x55 <= +inf
   0 <= x56 <= +inf
   0 <= x57 <= +inf
   0 <= x58 <= +inf
   0 <= x59 <= +inf
   0 <= x60 <= +inf
   0 <= x61 <= +inf
   0 <= x62 <= +inf
   0 <= x63 <= +inf
   0 <= x64 <= +inf
   0 <= x65 <= +inf
   0 <= x66 <= +inf
   0 <= x67 <= +inf
   0 <= x68 <= +inf
   0 <= x69 <= +inf
   0 <= x70 <= +inf
   0 <= x71 <= +inf
   0 <= x72 <= +inf
   0 <= x73 <= +inf
   0 <= x74 <= +inf
   0 <= x75 <= +inf
   0 <= x76 <= +inf
   0 <= x77 <= +inf
   0 <= x78 <= +inf
   0 <= x79 <= +inf
   0 <= x80 <= +inf
   0 <= x81 <= +inf
   0 <= x82 <= +inf
   0 <= x83 <= +inf
   0 <= x84 <= +inf
   0 <= x85 <= +inf
   0 <= x86 <= +inf
   0 <= x87 <= +inf
end
